W=9;
H=7;

MAX_TIME=33;
MAX_TRACKS=13;

TARGET=(4,9);

TRAINS=[(5,5,TOP),(4,2,RIGHT)];
DECOYS=[];

INIT_POS=[
(1,3,STRAIGHT_RL),
(1,4,STRAIGHT_RL),
(1,5,STRAIGHT_RL),
(1,6,STRAIGHT_RL),
(1,7,STRAIGHT_RL),
(4,2,STRAIGHT_RL),
(4,6,STRAIGHT_RL),
(4,7,STRAIGHT_RL),
(4,8,STRAIGHT_RL),
(4,9,STRAIGHT_RL),
(5,5,STRAIGHT_TD),
(7,3,STRAIGHT_RL),
(7,4,STRAIGHT_RL),
(7,5,STRAIGHT_RL),
(7,6,STRAIGHT_RL),
(7,7,STRAIGHT_RL),
];
TUNNEL_PAIRS=[
  (4, 1, RIGHT, 7, 9, LEFT),
  (1, 9, LEFT, 7, 1, RIGHT),
  (1, 1, RIGHT, 2, 5, DOWN),
];

GATES=[
(4,6,1,true),
(4,7,2,false),
(4,8,3,true),
];
ACTIVATIONS=[
(1,3,1),
(1,7,3),
(7,3,1),
(7,5,2),
(7,7,3),
];

DSWITCHES=[];

STATIONS=[];

SEMAPHORE_SUPPLY=0;
